
  22   10
  10   10   10   10   10   10   10   10   10   10

   0   0   0   0   0   0   0   0   0   0   0   3 2 7 11 
  10  10  10  10  10  10  10  10  10  10  10   1 3 
   3  10  10  10  10  10  10  10  10  10  10   1 4 
   5  10  10  10  10  10  10  10  10  10  10   1 5 
   5  10  10  10  10  10  10  10  10  10  10   1 6 
   7  10  10  10  10  10  10  10  10  10  10   2 14 8 
   5  10  10  10  10  10  10  10  10  10  10   1 8 
   8  10  10  10  10  10  10  10  10  10  10   2 16 9 
   2  10  10  10  10  10  10  10  10  10  10   2 19 10 
   9  10  10  10  10  10  10  10  10  10  10   1 12 
   4  10  10  10  10  10  10  10  10  10  10   3 21 19 15 
   2  10  10  10  10  10  10  10  10  10  10   1 13 
   6  10  10  10  10  10  10  10  10  10  10   2 21 15 
   5  10  10  10  10  10  10  10  10  10  10   2 19 15 
   4  10  10  10  10  10  10  10  10  10  10   1 17 
  10  10  10  10  10  10  10  10  10  10  10   1 17 
   8  10  10  10  10  10  10  10  10  10  10   1 18 
   3  10  10  10  10  10  10  10  10  10  10   1 20 
   2  10  10  10  10  10  10  10  10  10  10   1 20 
   4  10  10  10  10  10  10  10  10  10  10   1 22
   3  10  10  10  10  10  10  10  10  10  10   1 22
   0   0   0   0   0   0   0   0   0   0   0   0 
